NAME : X-n275-k28
COMMENT : "Generated by Uchoa, Pecin, Pessoa, Poggi, Subramanian, and Vidal (2013)"
TYPE : CVRP
DIMENSION : 275
EDGE_WEIGHT_TYPE : EUC_2D
CAPACITY : 10
NODE_COORD_SECTION
1 409 418
2 378 220
3 469 585
4 91 695
5 351 130
6 424 101
7 70 693
8 324 133
9 367 215
10 218 906
11 90 688
12 417 223
13 42 693
14 134 482
15 594 488
16 431 269
17 383 606
18 100 597
19 85 697
20 378 218
21 196 640
22 213 635
23 520 537
24 509 542
25 388 549
26 476 583
27 409 565
28 155 828
29 60 690
30 415 269
31 127 578
32 363 304
33 392 329
34 424 660
35 505 683
36 372 120
37 438 620
38 578 421
39 116 716
40 107 719
41 117 677
42 324 275
43 246 789
44 363 223
45 139 682
46 376 197
47 397 52
48 107 727
49 64 671
50 369 275
51 96 659
52 129 627
53 45 581
54 403 585
55 70 731
56 528 736
57 379 320
58 424 608
59 436 607
60 54 687
61 342 544
62 595 525
63 508 336
64 338 90
65 510 165
66 269 820
67 18 776
68 316 293
69 575 485
70 335 179
71 1 727
72 571 436
73 15 696
74 227 760
75 324 538
76 523 519
77 620 500
78 217 427
79 53 809
80 206 622
81 602 506
82 48 771
83 486 347
84 100 740
85 161 660
86 528 559
87 386 460
88 330 295
89 225 345
90 301 729
91 334 243
92 99 819
93 219 610
94 70 560
95 334 161
96 589 420
97 428 605
98 478 509
99 76 753
100 464 167
101 18 327
102 451 63
103 406 145
104 431 608
105 213 707
106 95 635
107 550 573
108 172 811
109 85 789
110 119 788
111 348 210
112 571 227
113 364 347
114 591 428
115 436 611
116 471 928
117 416 528
118 504 383
119 217 255
120 255 720
121 100 830
122 82 693
123 290 209
124 522 281
125 331 406
126 426 244
127 529 618
128 638 99
129 153 648
130 124 719
131 419 70
132 12 653
133 433 169
134 370 686
135 811 620
136 160 691
137 204 673
138 57 666
139 326 401
140 627 541
141 332 114
142 497 575
143 469 605
144 49 648
145 547 588
146 305 746
147 192 805
148 370 621
149 759 660
150 89 757
151 287 223
152 380 129
153 286 386
154 23 745
155 21 738
156 441 683
157 402 577
158 255 442
159 260 288
160 322 693
161 502 313
162 431 473
163 106 701
164 390 398
165 443 175
166 335 272
167 156 178
168 390 225
169 194 867
170 170 621
171 311 241
172 358 323
173 427 911
174 555 239
175 55 781
176 374 566
177 388 263
178 352 701
179 82 671
180 451 565
181 91 833
182 292 609
183 466 592
184 561 488
185 131 779
186 186 699
187 567 525
188 635 481
189 404 512
190 459 694
191 456 399
192 91 725
193 483 196
194 317 460
195 128 824
196 481 179
197 517 442
198 97 705
199 263 806
200 381 215
201 386 164
202 497 137
203 311 737
204 100 611
205 414 525
206 79 643
207 284 318
208 155 706
209 426 661
210 297 164
211 454 197
212 499 697
213 480 310
214 145 692
215 390 236
216 350 333
217 605 460
218 709 391
219 426 192
220 98 767
221 141 672
222 399 684
223 107 853
224 56 774
225 309 266
226 376 510
227 205 771
228 105 676
229 682 508
230 236 173
231 256 311
232 59 713
233 307 278
234 735 524
235 566 711
236 320 437
237 71 844
238 18 737
239 430 559
240 85 479
241 376 276
242 171 400
243 430 237
244 201 588
245 478 593
246 291 132
247 464 582
248 669 494
249 562 733
250 298 173
251 438 567
252 402 206
253 150 291
254 364 561
255 415 580
256 87 693
257 502 751
258 132 831
259 574 481
260 19 707
261 486 590
262 399 205
263 165 712
264 63 746
265 50 740
266 514 246
267 400 617
268 421 162
269 497 582
270 260 817
271 40 768
272 58 721
273 332 614
274 190 878
275 346 218
PICKUP_AND_DELIVERY_SECTION
1 0 0 1000000000 0 0 0
2 0 0 1000000000 0 0.582 0.418
3 0 0 1000000000 0 0.8017 0.1983
4 0 0 1000000000 0 0.1309 0.8691
5 0 0 1000000000 0 0.3704 0.6296
6 0 0 1000000000 0 0.2382 0.7618
7 0 0 1000000000 0 0.101 0.899
8 0 0 1000000000 0 0.4105 0.5895
9 0 0 1000000000 0 0.5858 0.4142
10 0 0 1000000000 0 0.2406 0.7594
11 0 0 1000000000 0 0.1308 0.8692
12 0 0 1000000000 0 0.5348 0.4652
13 0 0 1000000000 0 0.06061 0.9394
14 0 0 1000000000 0 0.278 0.722
15 0 0 1000000000 0 0.8215 0.1785
16 0 0 1000000000 0 0.6241 0.3759
17 0 0 1000000000 0 0.632 0.368
18 0 0 1000000000 0 0.1675 0.8325
19 0 0 1000000000 0 0.122 0.878
20 0 0 1000000000 0 0.5767 0.4233
21 0 0 1000000000 0 0.3063 0.6937
22 0 0 1000000000 0 0.3354 0.6646
23 0 0 1000000000 0 0.9683 0.03166
24 0 0 1000000000 0 0.9391 0.06089
25 0 0 1000000000 0 0.7067 0.2933
26 0 0 1000000000 0 0.8165 0.1835
27 0 0 1000000000 0 0.7239 0.2761
28 0 0 1000000000 0 0.1872 0.8128
29 0 0 1000000000 0 0.08696 0.913
30 0 0 1000000000 0 0.6482 0.3518
31 0 0 1000000000 0 0.2197 0.7803
32 0 0 1000000000 0 0.8375 0.1625
33 0 0 1000000000 0 0.8393 0.1607
34 0 0 1000000000 0 0.6424 0.3576
35 0 0 1000000000 0 0.7394 0.2606
36 0 0 1000000000 0 0.3226 0.6774
37 0 0 1000000000 0 0.7065 0.2935
38 0 0 1000000000 0 0.7284 0.2716
39 0 0 1000000000 0 0.162 0.838
40 0 0 1000000000 0 0.1488 0.8512
41 0 0 1000000000 0 0.1728 0.8272
42 0 0 1000000000 0 0.8488 0.1512
43 0 0 1000000000 0 0.3118 0.6882
44 0 0 1000000000 0 0.6143 0.3857
45 0 0 1000000000 0 0.2038 0.7962
46 0 0 1000000000 0 0.5239 0.4761
47 0 0 1000000000 0 0.131 0.869
48 0 0 1000000000 0 0.1472 0.8528
49 0 0 1000000000 0 0.09538 0.9046
50 0 0 1000000000 0 0.7453 0.2547
51 0 0 1000000000 0 0.1457 0.8543
52 0 0 1000000000 0 0.2057 0.7943
53 0 0 1000000000 0 0.07745 0.9225
54 0 0 1000000000 0 0.6889 0.3111
55 0 0 1000000000 0 0.09576 0.9042
56 0 0 1000000000 0 0.7174 0.2826
57 0 0 1000000000 0 0.8443 0.1557
58 0 0 1000000000 0 0.6974 0.3026
59 0 0 1000000000 0 0.7183 0.2817
60 0 0 1000000000 0 0.0786 0.9214
61 0 0 1000000000 0 0.6287 0.3713
62 0 0 1000000000 0 0.8824 0.1176
63 0 0 1000000000 0 0.6614 0.3386
64 0 0 1000000000 0 0.2663 0.7337
65 0 0 1000000000 0 0.3235 0.6765
66 0 0 1000000000 0 0.328 0.672
67 0 0 1000000000 0 0.0232 0.9768
68 0 0 1000000000 0 0.9272 0.07278
69 0 0 1000000000 0 0.8435 0.1565
70 0 0 1000000000 0 0.5343 0.4657
71 0 0 1000000000 0 0.00138 0.9986
72 0 0 1000000000 0 0.7636 0.2364
73 0 0 1000000000 0 0.02155 0.9784
74 0 0 1000000000 0 0.2987 0.7013
75 0 0 1000000000 0 0.6022 0.3978
76 0 0 1000000000 0 0.9924 0.00765
77 0 0 1000000000 0 0.8065 0.1935
78 0 0 1000000000 0 0.5082 0.4918
79 0 0 1000000000 0 0.06551 0.9345
80 0 0 1000000000 0 0.3312 0.6688
81 0 0 1000000000 0 0.8405 0.1595
82 0 0 1000000000 0 0.06226 0.9377
83 0 0 1000000000 0 0.714 0.286
84 0 0 1000000000 0 0.1351 0.8649
85 0 0 1000000000 0 0.2439 0.7561
86 0 0 1000000000 0 0.9445 0.05546
87 0 0 1000000000 0 0.8391 0.1609
88 0 0 1000000000 0 0.8939 0.1061
89 0 0 1000000000 0 0.6522 0.3478
90 0 0 1000000000 0 0.4129 0.5871
91 0 0 1000000000 0 0.7275 0.2725
92 0 0 1000000000 0 0.1209 0.8791
93 0 0 1000000000 0 0.359 0.641
94 0 0 1000000000 0 0.125 0.875
95 0 0 1000000000 0 0.482 0.518
96 0 0 1000000000 0 0.7131 0.2869
97 0 0 1000000000 0 0.7074 0.2926
98 0 0 1000000000 0 0.9391 0.0609
99 0 0 1000000000 0 0.1009 0.8991
100 0 0 1000000000 0 0.3599 0.6401
101 0 0 1000000000 0 0.05505 0.945
102 0 0 1000000000 0 0.1397 0.8603
103 0 0 1000000000 0 0.3571 0.6429
104 0 0 1000000000 0 0.7089 0.2911
105 0 0 1000000000 0 0.3013 0.6987
106 0 0 1000000000 0 0.1496 0.8504
107 0 0 1000000000 0 0.9599 0.04014
108 0 0 1000000000 0 0.2121 0.7879
109 0 0 1000000000 0 0.1077 0.8923
110 0 0 1000000000 0 0.151 0.849
111 0 0 1000000000 0 0.6034 0.3966
112 0 0 1000000000 0 0.3975 0.6025
113 0 0 1000000000 0 0.9533 0.0467
114 0 0 1000000000 0 0.7242 0.2758
115 0 0 1000000000 0 0.7136 0.2864
116 0 0 1000000000 0 0.5075 0.4925
117 0 0 1000000000 0 0.7879 0.2121
118 0 0 1000000000 0 0.7599 0.2401
119 0 0 1000000000 0 0.851 0.149
120 0 0 1000000000 0 0.3542 0.6458
121 0 0 1000000000 0 0.1205 0.8795
122 0 0 1000000000 0 0.1183 0.8817
123 0 0 1000000000 0 0.7207 0.2793
124 0 0 1000000000 0 0.5383 0.4617
125 0 0 1000000000 0 0.8153 0.1847
126 0 0 1000000000 0 0.5728 0.4272
127 0 0 1000000000 0 0.856 0.144
128 0 0 1000000000 0 0.1552 0.8448
129 0 0 1000000000 0 0.2361 0.7639
130 0 0 1000000000 0 0.1725 0.8275
131 0 0 1000000000 0 0.1671 0.8329
132 0 0 1000000000 0 0.01838 0.9816
133 0 0 1000000000 0 0.3903 0.6097
134 0 0 1000000000 0 0.5394 0.4606
135 0 0 1000000000 0 0.7645 0.2355
136 0 0 1000000000 0 0.2315 0.7685
137 0 0 1000000000 0 0.3031 0.6969
138 0 0 1000000000 0 0.08559 0.9144
139 0 0 1000000000 0 0.813 0.187
140 0 0 1000000000 0 0.8628 0.1372
141 0 0 1000000000 0 0.3434 0.6566
142 0 0 1000000000 0 0.8643 0.1357
143 0 0 1000000000 0 0.7752 0.2248
144 0 0 1000000000 0 0.07562 0.9244
145 0 0 1000000000 0 0.9303 0.06973
146 0 0 1000000000 0 0.4088 0.5912
147 0 0 1000000000 0 0.2385 0.7615
148 0 0 1000000000 0 0.5958 0.4042
149 0 0 1000000000 0 0.8696 0.1304
150 0 0 1000000000 0 0.1176 0.8824
151 0 0 1000000000 0 0.777 0.223
152 0 0 1000000000 0 0.3395 0.6605
153 0 0 1000000000 0 0.7409 0.2591
154 0 0 1000000000 0 0.03087 0.9691
155 0 0 1000000000 0 0.02846 0.9715
156 0 0 1000000000 0 0.6457 0.3543
157 0 0 1000000000 0 0.6967 0.3033
158 0 0 1000000000 0 0.5769 0.4231
159 0 0 1000000000 0 0.9028 0.09722
160 0 0 1000000000 0 0.4646 0.5354
161 0 0 1000000000 0 0.6235 0.3765
162 0 0 1000000000 0 0.9112 0.08879
163 0 0 1000000000 0 0.1512 0.8488
164 0 0 1000000000 0 0.9799 0.0201
165 0 0 1000000000 0 0.395 0.605
166 0 0 1000000000 0 0.8119 0.1881
167 0 0 1000000000 0 0.8764 0.1236
168 0 0 1000000000 0 0.5769 0.4231
169 0 0 1000000000 0 0.2238 0.7762
170 0 0 1000000000 0 0.2738 0.7262
171 0 0 1000000000 0 0.7749 0.2251
172 0 0 1000000000 0 0.9022 0.09777
173 0 0 1000000000 0 0.4687 0.5313
174 0 0 1000000000 0 0.4306 0.5694
175 0 0 1000000000 0 0.07042 0.9296
176 0 0 1000000000 0 0.6608 0.3392
177 0 0 1000000000 0 0.6778 0.3222
178 0 0 1000000000 0 0.5021 0.4979
179 0 0 1000000000 0 0.1222 0.8778
180 0 0 1000000000 0 0.7982 0.2018
181 0 0 1000000000 0 0.1092 0.8908
182 0 0 1000000000 0 0.4795 0.5205
183 0 0 1000000000 0 0.7872 0.2128
184 0 0 1000000000 0 0.8699 0.1301
185 0 0 1000000000 0 0.1682 0.8318
186 0 0 1000000000 0 0.2661 0.7339
187 0 0 1000000000 0 0.9259 0.07407
188 0 0 1000000000 0 0.7575 0.2425
189 0 0 1000000000 0 0.7891 0.2109
190 0 0 1000000000 0 0.6614 0.3386
191 0 0 1000000000 0 0.875 0.125
192 0 0 1000000000 0 0.1255 0.8745
193 0 0 1000000000 0 0.4058 0.5942
194 0 0 1000000000 0 0.6891 0.3109
195 0 0 1000000000 0 0.1553 0.8447
196 0 0 1000000000 0 0.3721 0.6279
197 0 0 1000000000 0 0.8549 0.1451
198 0 0 1000000000 0 0.1376 0.8624
199 0 0 1000000000 0 0.3263 0.6737
200 0 0 1000000000 0 0.5643 0.4357
201 0 0 1000000000 0 0.4249 0.5751
202 0 0 1000000000 0 0.2757 0.7243
203 0 0 1000000000 0 0.422 0.578
204 0 0 1000000000 0 0.1637 0.8363
205 0 0 1000000000 0 0.7886 0.2114
206 0 0 1000000000 0 0.1229 0.8771
207 0 0 1000000000 0 0.8931 0.1069
208 0 0 1000000000 0 0.2195 0.7805
209 0 0 1000000000 0 0.6445 0.3555
210 0 0 1000000000 0 0.5522 0.4478
211 0 0 1000000000 0 0.4339 0.5661
212 0 0 1000000000 0 0.7159 0.2841
213 0 0 1000000000 0 0.6458 0.3542
214 0 0 1000000000 0 0.2095 0.7905
215 0 0 1000000000 0 0.6051 0.3949
216 0 0 1000000000 0 0.9514 0.04857
217 0 0 1000000000 0 0.7603 0.2397
218 0 0 1000000000 0 0.5515 0.4485
219 0 0 1000000000 0 0.4507 0.5493
220 0 0 1000000000 0 0.1278 0.8722
221 0 0 1000000000 0 0.2098 0.7902
222 0 0 1000000000 0 0.5833 0.4167
223 0 0 1000000000 0 0.1254 0.8746
224 0 0 1000000000 0 0.07235 0.9276
225 0 0 1000000000 0 0.8608 0.1392
226 0 0 1000000000 0 0.7373 0.2627
227 0 0 1000000000 0 0.2659 0.7341
228 0 0 1000000000 0 0.1553 0.8447
229 0 0 1000000000 0 0.7449 0.2551
230 0 0 1000000000 0 0.7331 0.2669
231 0 0 1000000000 0 0.8232 0.1768
232 0 0 1000000000 0 0.08275 0.9173
233 0 0 1000000000 0 0.9055 0.09446
234 0 0 1000000000 0 0.7129 0.2871
235 0 0 1000000000 0 0.7961 0.2039
236 0 0 1000000000 0 0.7323 0.2677
237 0 0 1000000000 0 0.08412 0.9159
238 0 0 1000000000 0 0.02442 0.9756
239 0 0 1000000000 0 0.7692 0.2308
240 0 0 1000000000 0 0.1775 0.8225
241 0 0 1000000000 0 0.734 0.266
242 0 0 1000000000 0 0.4275 0.5725
243 0 0 1000000000 0 0.5512 0.4488
244 0 0 1000000000 0 0.3418 0.6582
245 0 0 1000000000 0 0.8061 0.1939
246 0 0 1000000000 0 0.4536 0.5464
247 0 0 1000000000 0 0.7973 0.2027
248 0 0 1000000000 0 0.7384 0.2616
249 0 0 1000000000 0 0.7667 0.2333
250 0 0 1000000000 0 0.5805 0.4195
251 0 0 1000000000 0 0.7725 0.2275
252 0 0 1000000000 0 0.5124 0.4876
253 0 0 1000000000 0 0.5155 0.4845
254 0 0 1000000000 0 0.6488 0.3512
255 0 0 1000000000 0 0.7155 0.2845
256 0 0 1000000000 0 0.1255 0.8745
257 0 0 1000000000 0 0.6684 0.3316
258 0 0 1000000000 0 0.1588 0.8412
259 0 0 1000000000 0 0.838 0.162
260 0 0 1000000000 0 0.02687 0.9731
261 0 0 1000000000 0 0.8237 0.1763
262 0 0 1000000000 0 0.5138 0.4862
263 0 0 1000000000 0 0.2317 0.7683
264 0 0 1000000000 0 0.08445 0.9155
265 0 0 1000000000 0 0.06757 0.9324
266 0 0 1000000000 0 0.4786 0.5214
267 0 0 1000000000 0 0.6483 0.3517
268 0 0 1000000000 0 0.3848 0.6152
269 0 0 1000000000 0 0.854 0.146
270 0 0 1000000000 0 0.3182 0.6818
271 0 0 1000000000 0 0.05208 0.9479
272 0 0 1000000000 0 0.08044 0.9196
273 0 0 1000000000 0 0.5407 0.4593
274 0 0 1000000000 0 0.2164 0.7836
275 0 0 1000000000 0 0.6301 0.3699
